
  19    0


   0  10 2 3 5 6 7 8 15 16 17 18 
  10   4 14 13 11 4 
  10   3 12 10 9 
   6   1 9 
   4   1 11 
   3   1 10 
   1   1 9 
   7   1 9 
   1   1 19
   4   1 19
   7   1 19
   6   1 19
   6   1 19
   9   1 19
   9   1 19
   6   1 19
  10   1 19
   4   1 19
   0   0 
